
Welcome to IBM(R) ILOG(R) CPLEX(R) Interactive Optimizer 22.1.1.0
  with Simplex, Mixed Integer & Barrier Optimizers
5725-A06 5725-A29 5724-Y48 5724-Y49 5724-Y54 5724-Y55 5655-Y21
Copyright IBM Corp. 1988, 2022.  All Rights Reserved.

Type 'help' for a list of available commands.
Type 'help' followed by a command name for more
information on commands.

CPLEX> Selected objective sense:  MINIMIZE
Selected objective  name:  00000000
Selected RHS        name:  RHS1
Selected bound      name:  BOUND
Problem 'ee.mps' read.
Read time = 0.02 sec. (3.17 ticks)
CPLEX> New value for time limit in seconds: 7200
CPLEX> New value for parallel optimization mode: -1
CPLEX> New value for default parallel thread count: 40
CPLEX> New value for mixed integer optimality gap tolerance: 1e-13
CPLEX> Version identifier: 22.1.1.0 | 2022-11-28 | 9160aff4d
CPXPARAM_Threads                                 40
CPXPARAM_Parallel                                -1
CPXPARAM_TimeLimit                               7200
CPXPARAM_MIP_Tolerances_MIPGap                   1e-13
Found incumbent of value 0.000000 after 0.00 sec. (0.31 ticks)
Tried aggregator 2 times.
MIP Presolve eliminated 179 rows and 2745 columns.
MIP Presolve modified 6090 coefficients.
Aggregator did 713 substitutions.
Reduced MIP has 3636 rows, 7835 columns, and 28932 nonzeros.
Reduced MIP has 7835 binaries, 0 generals, 0 SOSs, and 0 indicators.
Presolve time = 0.07 sec. (68.91 ticks)
Probing fixed 137 vars, tightened 0 bounds.
Probing time = 0.07 sec. (40.32 ticks)
Tried aggregator 2 times.
Detecting symmetries...
MIP Presolve eliminated 38 rows and 184 columns.
MIP Presolve modified 12 coefficients.
Aggregator did 51 substitutions.
Reduced MIP has 3547 rows, 7586 columns, and 28049 nonzeros.
Reduced MIP has 7586 binaries, 0 generals, 0 SOSs, and 0 indicators.
Presolve time = 0.07 sec. (75.57 ticks)
Probing fixed 16 vars, tightened 0 bounds.
Probing time = 0.07 sec. (35.90 ticks)
Clique table members: 18351.
MIP emphasis: balance optimality and feasibility.
MIP search method: dynamic search.
Parallel mode: opportunistic, using up to 40 threads.
Root relaxation solution time = 0.07 sec. (58.23 ticks)

        Nodes                                         Cuts/
   Node  Left     Objective  IInf  Best Integer    Best Bound    ItCnt     Gap

*     0+    0                            0.0000  -1.54000e+13              --- 
*     0+    0                      -3.59000e+12  -1.54000e+13           328.97%
*     0+    0                      -4.80000e+12  -1.54000e+13           220.83%
*     0+    0                      -6.00000e+12  -1.54000e+13           156.67%
*     0+    0                      -7.20000e+12  -1.54000e+13           113.89%
      0     0  -1.53900e+13    33  -7.20000e+12  -1.53900e+13     1843  113.75%
*     0+    0                      -1.53900e+13  -1.53900e+13             0.00%
      0     0  -1.53900e+13    76  -1.53900e+13      Cuts: 31     2106    0.00%
*     0+    0                      -1.53900e+13  -1.53900e+13             0.00%
*     0+    0                      -1.53900e+13  -1.53900e+13             0.00%
      0     0  -1.53900e+13   123  -1.53900e+13      Cuts: 47     2509    0.00%
*     0+    0                      -1.53900e+13  -1.53900e+13             0.00%
Detecting symmetries...
      0     2  -1.53900e+13   123  -1.53900e+13  -1.53900e+13     2509    0.00%
Elapsed time = 1.69 sec. (964.34 ticks, tree = 0.02 MB, solutions = 10)
    648    85  -1.53900e+13   122  -1.53900e+13  -1.53900e+13    11344    0.00%
   1432   150  -1.53900e+13    77  -1.53900e+13  -1.53900e+13    17982    0.00%
   1738   867  -1.53900e+13   147  -1.53900e+13  -1.53900e+13    83284    0.00%
   2391   938  -1.53900e+13    26  -1.53900e+13  -1.53900e+13    91690    0.00%
   3199  1102  -1.53900e+13   115  -1.53900e+13  -1.53900e+13   111644    0.00%
   4059  1555  -1.53900e+13    82  -1.53900e+13  -1.53900e+13   171031    0.00%
   4886  1487  -1.53900e+13   152  -1.53900e+13  -1.53900e+13   162607    0.00%
   5636  1566  -1.53900e+13   199  -1.53900e+13  -1.53900e+13   173598    0.00%
   6179  1737  -1.53900e+13   141  -1.53900e+13  -1.53900e+13   194643    0.00%
   8403  2477  -1.53900e+13   153  -1.53900e+13  -1.53900e+13   310707    0.00%
Elapsed time = 7.13 sec. (4067.66 ticks, tree = 35.82 MB, solutions = 16)
  10608  3205  -1.53900e+13   221  -1.53900e+13  -1.53900e+13   614790    0.00%
  11852  3519  -1.53900e+13   158  -1.53900e+13  -1.53900e+13   677026    0.00%

Performing restart 1

Repeating presolve.
Tried aggregator 3 times.
MIP Presolve eliminated 502 rows and 1417 columns.
MIP Presolve modified 2221 coefficients.
Aggregator did 178 substitutions.
Reduced MIP has 2781 rows, 5973 columns, and 21514 nonzeros.
Reduced MIP has 5973 binaries, 0 generals, 0 SOSs, and 0 indicators.
Presolve time = 0.08 sec. (73.49 ticks)
Tried aggregator 3 times.
MIP Presolve eliminated 353 rows and 905 columns.
MIP Presolve modified 52 coefficients.
Aggregator did 96 substitutions.
Reduced MIP has 2328 rows, 4961 columns, and 17800 nonzeros.
Reduced MIP has 4961 binaries, 0 generals, 0 SOSs, and 0 indicators.
Presolve time = 0.06 sec. (56.01 ticks)
Tried aggregator 2 times.
MIP Presolve eliminated 15 rows and 29 columns.
Aggregator did 4 substitutions.
Reduced MIP has 2309 rows, 4923 columns, and 17669 nonzeros.
Reduced MIP has 4923 binaries, 0 generals, 0 SOSs, and 0 indicators.
Presolve time = 0.04 sec. (32.17 ticks)
Represolve time = 0.33 sec. (235.09 ticks)
  11940     0  -1.53900e+13   239  -1.53900e+13      Cuts: 26   951235    0.00%
  11940     0  -1.53900e+13   216  -1.53900e+13      Cuts: 23   951459    0.00%
  11940     0  -1.53900e+13   239  -1.53900e+13      Cuts: 20   951559    0.00%
  11940     0  -1.53900e+13   242  -1.53900e+13      Cuts: 21   951740    0.00%
  11940     0  -1.53900e+13   272  -1.53900e+13      Cuts: 43   952023    0.00%
  11940     0  -1.53900e+13   281  -1.53900e+13      Cuts: 60   952210    0.00%
  11940     0  -1.53900e+13   279  -1.53900e+13      Cuts: 34   952321    0.00%
  11940     0  -1.53900e+13   291  -1.53900e+13      Cuts: 20   952394    0.00%
  11940     0  -1.53900e+13   298  -1.53900e+13      Cuts: 38   952842    0.00%
  11940     0  -1.53900e+13   304  -1.53900e+13      Cuts: 62   953214    0.00%
  11940     0  -1.53900e+13   384  -1.53900e+13      Cuts: 38   953414    0.00%
  11940     0  -1.53900e+13   316  -1.53900e+13      Cuts: 23   953611    0.00%
  11940     0  -1.53900e+13   338  -1.53900e+13      Cuts: 29   953769    0.00%
  11940     0  -1.53900e+13   364  -1.53900e+13      Cuts: 26   953889    0.00%
  11940     0  -1.53900e+13   310  -1.53900e+13      Cuts: 17   953961    0.00%
  11940     0  -1.53900e+13   326  -1.53900e+13      Cuts: 21   954019    0.00%
  11940    19        cutoff        -1.53900e+13  -1.53900e+13   960778    0.00%
  12511    10  -1.53900e+13   251  -1.53900e+13  -1.53900e+13   956475    0.00%
  12605    29        cutoff        -1.53900e+13  -1.53900e+13   974627    0.00%

GUB cover cuts applied:  2
Clique cuts applied:  4
Cover cuts applied:  215
Flow cuts applied:  1
Mixed integer rounding cuts applied:  19
Zero-half cuts applied:  75
Gomory fractional cuts applied:  13

Root node processing (before b&c):
  Real time             =    1.05 sec. (962.98 ticks)
Parallel b&c, 40 threads:
  Real time             =   13.18 sec. (10046.95 ticks)
  Sync time (average)   =    2.93 sec.
  Wait time (average)   =    0.09 sec.
                          ------------
Total (root+branch&cut) =   14.23 sec. (11009.93 ticks)

Solution pool: 17 solutions saved.

MIP - Integer optimal solution:  Objective = -1.5389999389e+13
Solution time =   14.35 sec.  Iterations = 978471  Nodes = 12624
Deterministic time = 11009.96 ticks  (767.22 ticks/sec)

CPLEX> Solution 'p18' written to file 'ee.sol'.
CPLEX> 